decision_x1=[0,4];
decision_x2=[0,4];
decision_x3=[0,4];
decision_x4=[0,4];
decision_x5=[0,4];
decision_x6=[0,4];
random_y1=[0,4];
random_y2=[0,4];
random_y3=[0,4];
constraint_x3_x1=[
0,1,4.3|
0,2,3|
0,3,4.8|
0,4,4.8|
1,0,4.5|
1,2,10|
1,3,4.9|
1,4,6.1|
2,0,6.6|
2,1,4.4|
2,3,8.3|
2,4,7.5|
3,0,5.8|
3,1,8.3|
3,2,2.2|
3,4,9.3|
4,0,7.7|
4,1,8.5|
4,2,9.2|
4,3,1.5|
];
constraint_x3_x2=[
0,1,4.8|
0,2,6|
0,3,7.9|
0,4,3.5|
1,0,9.2|
1,2,2.4|
1,3,6.2|
1,4,3.8|
2,0,0.62|
2,1,1.4|
2,3,7.6|
2,4,8.9|
3,0,2.7|
3,1,0.19|
3,2,7.3|
3,4,7.1|
4,0,0.31|
4,1,7.2|
4,2,2.2|
4,3,7.8|
];
constraint_x4_x3=[
0,1,8.9|
0,2,2.2|
0,3,9|
0,4,6.1|
1,0,0.45|
1,2,5.5|
1,3,1.5|
1,4,0.87|
2,0,0.11|
2,1,7|
2,3,6.4|
2,4,3.5|
3,0,4.9|
3,1,9.2|
3,2,5.3|
3,4,4.7|
4,0,2.6|
4,1,2.2|
4,2,2.2|
4,3,2.8|
];
constraint_x5_x2=[
0,1,5.9|
0,2,5|
0,3,2.1|
0,4,2.5|
1,0,7.4|
1,2,5|
1,3,8.1|
1,4,0.9|
2,0,7.9|
2,1,4.3|
2,3,8.1|
2,4,3.5|
3,0,3.8|
3,1,0.42|
3,2,1.2|
3,4,1|
4,0,1.9|
4,1,1.3|
4,2,8.2|
4,3,6.3|
];
constraint_x5_x4=[
0,1,9.6|
0,2,3.5|
0,3,7.7|
0,4,8.3|
1,0,9.3|
1,2,8.7|
1,3,0.87|
1,4,1.2|
2,0,3.3|
2,1,7.5|
2,3,0.0032|
2,4,7|
3,0,3|
3,1,6.8|
3,2,4.7|
3,4,8.1|
4,0,0.036|
4,1,5.4|
4,2,8.7|
4,3,1.3|
];
constraint_x6_x2=[
0,1,1.7|
0,2,5.3|
0,3,7.5|
0,4,5.9|
1,0,8.8|
1,2,5.9|
1,3,0.92|
1,4,7.9|
2,0,3.7|
2,1,2.2|
2,3,5.9|
2,4,9.9|
3,0,9.5|
3,1,6.7|
3,2,9.3|
3,4,0.38|
4,0,4.5|
4,1,9.2|
4,2,6.7|
4,3,5.8|
];
constraint_x6_x3=[
0,1,6.1|
0,2,4.7|
0,3,2.8|
0,4,8.1|
1,0,5.2|
1,2,6.8|
1,3,6.6|
1,4,2.2|
2,0,6.8|
2,1,6.7|
2,3,5|
2,4,5.6|
3,0,9.2|
3,1,8.4|
3,2,4.6|
3,4,9.1|
4,0,5.1|
4,1,5.4|
4,2,1.6|
4,3,5.9|
];
constraint_x6_x4=[
0,1,3.3|
0,2,5|
0,3,1.7|
0,4,3.6|
1,0,3.3|
1,2,6.9|
1,3,2.7|
1,4,7.4|
2,0,9.4|
2,1,0.41|
2,3,0.77|
2,4,0.25|
3,0,7.2|
3,1,2.5|
3,2,8.6|
3,4,5.6|
4,0,3.1|
4,1,4.1|
4,2,7.9|
4,3,2.7|
];
constraint_x1_y1=[
0,0,8.8|
0,1,8.8|
0,2,1.2|
0,3,2.9|
0,4,0.11|
1,0,0.83|
1,1,7.7|
1,2,0.73|
1,3,3.8|
1,4,8.9|
2,0,1.5|
2,1,2.6|
2,2,3.4|
2,3,5.3|
2,4,0.32|
3,0,4.3|
3,1,3.7|
3,2,6.6|
3,3,8|
3,4,6.7|
4,0,5.7|
4,1,3.1|
4,2,4.6|
4,3,8|
4,4,8|
];
constraint_x2_y2=[
0,0,7.7|
0,1,6.8|
0,2,8.1|
0,3,3.6|
0,4,8.9|
1,0,8|
1,1,5.5|
1,2,1.7|
1,3,7.2|
1,4,4.5|
2,0,3.6|
2,1,2.7|
2,2,8.9|
2,3,4.6|
2,4,1.9|
3,0,7.3|
3,1,8.4|
3,2,2.7|
3,3,4.2|
3,4,1.4|
4,0,8.5|
4,1,9.8|
4,2,3.1|
4,3,0.57|
4,4,4.9|
];
constraint_x3_y3=[
0,0,0.71|
0,1,9.9|
0,2,9.4|
0,3,1.7|
0,4,9.6|
1,0,7|
1,1,6.8|
1,2,7.1|
1,3,8.3|
1,4,0.48|
2,0,3.7|
2,1,3.9|
2,2,8|
2,3,4.1|
2,4,8.9|
3,0,1.3|
3,1,9.8|
3,2,0.4|
3,3,3.8|
3,4,2.7|
4,0,0.77|
4,1,1.5|
4,2,0.77|
4,3,4.1|
4,4,3.6|
];
initial_distribution_y1=[0.21,0.2,0.24,0.19,0.16];
initial_distribution_y2=[0.29,0.19,0.018,0.33,0.17];
initial_distribution_y3=[0.29,0.13,0.26,0.1,0.22];
transition_y1=[
0.15,0.25,0.079,0.5,0.021|
0.2,0.17,0.3,0.088,0.24|
0.46,0.12,0.029,0.17,0.23|
0.069,0.063,0.18,0.34,0.35|
0.046,0.22,0.3,0.2,0.24|
];
transition_y2=[
0.19,0.19,0.16,0.23,0.23|
0.29,0.026,0.043,0.31,0.33|
0.24,0.36,0.22,0.15,0.04|
0.0071,0.29,0.31,0.062,0.33|
0.15,0.25,0.31,0.092,0.2|
];
transition_y3=[
0.42,0.25,0.2,0.032,0.098|
0.049,0.24,0.21,0.28,0.22|
0.062,0.18,0.05,0.28,0.42|
0.25,0.23,0.23,0.24,0.054|
0.019,0.37,0.19,0.042,0.38|
];
